
--- Job sourceFile.gms Start 08/10/24 00:27:03 47.4.0 838fd78c WEX-WEI x86 64bit/MS Windows
--- Applying:
    C:\Program Files (x86)\GAMS\47\gmsprmNT.txt
--- GAMS Parameters defined
    Input C:\projects\itStud9Lp2024\gamsWorkSpace\sourceFile.gms
    PageSize 0
    ScrDir C:\projects\itStud9Lp2024\gamsWorkSpace\225a\
    SysDir "C:\Program Files (x86)\GAMS\47\"
    LogOption 3
    ErrMsg 1
    ErrorLog 99
    IDE 1
    LstTitleLeftAligned 1
Licensee: Course License                                 S240418|0002AO-GEN
          Stiftung Universitaet Hildesheim                          DCE3433
          C:\Program Files (x86)\GAMS\47\gamslice.txt
          License Admin: Julia Rieck, rieck@bwl.uni-hildesheim.de          
          Course license for use within the course and related course work
          The evaluation period of the license will expire on Oct 15, 2024
Processor information: 1 socket(s), 6 core(s), and 12 thread(s) available
GAMS 47.4.0   Copyright (C) 1987-2024 GAMS Development. All rights reserved
--- Starting compilation
--- sourceFile.gms(287) 3 Mb
--- Starting execution: elapsed 0:00:00.008
--- sourceFile.gms(143) 4 Mb
--- Generating MIP model optModel
--- sourceFile.gms(272) 24 Mb
---   27,607 rows  76,786 columns  202,389 non-zeroes
---   75,262 discrete-columns
--- Range statistics (absolute non-zero finite values)
--- RHS       [min, max] : [ 1.000E+00, 3.000E+00] - Zero values observed as well
--- Bound     [min, max] : [ 1.000E+00, 1.000E+00] - Zero values observed as well
--- Matrix    [min, max] : [ 1.000E+00, 1.000E+00]
--- Executing CPLEX (Solvelink=2): elapsed 0:00:00.638

IBM ILOG CPLEX   47.4.0 838fd78c Jul 30, 2024          WEI x86 64bit/MS Window

--- GAMS/CPLEX Link licensed for continuous and discrete problems.
--- GMO setup time: 0.00s
--- Space for names approximately 3.03 Mb
--- Use option 'names no' to turn use of names off
--- GMO memory 21.63 Mb (peak 22.22 Mb)
--- Dictionary memory 0.00 Mb
--- Cplex 22.1.1.0 link memory 1.78 Mb (peak 8.01 Mb)
--- Starting Cplex

Version identifier: 22.1.1.0 | 2022-11-27 | 9160aff4d
CPXPARAM_Advance                                 0
CPXPARAM_MIP_Display                             4
CPXPARAM_MIP_Pool_Capacity                       0
CPXPARAM_MIP_Tolerances_AbsMIPGap                0
Generic callback                                 0x50
Dual infeasible due to empty column 'vBD_p(p1)'.
Presolve time = 0.02 sec. (9.95 ticks)

Root node processing (before b&c):
  Real time             =    0.02 sec. (16.07 ticks)
Parallel b&c, 12 threads:
  Real time             =    0.00 sec. (0.00 ticks)
  Sync time (average)   =    0.00 sec.
  Wait time (average)   =    0.00 sec.
                          ------------
Total (root+branch&cut) =    0.02 sec. (16.07 ticks)

--- MIP status (119): integer infeasible or unbounded.
--- Cplex Time: 0.02sec (det. 16.29 ticks)

CPLEX Error  1217: No solution exists.
--- Problem is integer infeasible
--- Reading solution for model optModel
--- Executing after solve: elapsed 0:00:00.780
--- sourceFile.gms(287) 24 Mb
*** Status: Normal completion
--- Job sourceFile.gms Stop 08/10/24 00:27:03 elapsed 0:00:00.782
